52	53	56	58	61	67	73	66	68	64	57	70	77	79	81	84	83	88	92	95	96	93	91	103	102	109	113	114	119	122	118	117	116	115	112	110	108	107	105	106	97	100	121	120	128	123	124	129	135	133	131	136	143	148	155	151	158	159	162	167	168	165	170	180	178	181	177	175	173	174	179	172	169	163	161	164	176	182	186	183	187	190	194	189	191	192	188	184	193	185	171	166	160	147	152	153	150	154	157	144	141	139	138	142	146	149	156	145	140	137	134	132	127	125	126	130	111	104	101	99	94	90	89	98	86	85	65	20	63	36	59	62	82	80	87	76	71	75	72	78	74	69	60	45	29	22	28	33	18	21	24	26	17	14	13	16	8	6	1	23	25	11	7	4	2	3	5	9	10	12	15	19	30	32	31	35	42	49	55	50	44	46	41	38	27	37	39	47	51	34	40	43	48	54	52	